c 
c G(n,p) graph
c graph gen seed     : 189
c number of vertices : 20
c max number of edges: 400
c edge probability   : 0.600000
c data structure     : dense
c
c           Graph Stats
c number of vertices  : 20
c nonisolated vertices: 20
c number of edges     : 111
c edge density        : 0.584211
c max degree          : 14
c avg degree          : 11.10
c min degree          : 8
p col 20 111
e 1 3
e 1 4
e 1 5
e 1 8
e 1 10
e 1 13
e 1 14
e 1 16
e 1 17
e 1 20
e 2 4
e 2 8
e 2 12
e 2 14
e 2 16
e 2 17
e 2 18
e 2 19
e 2 20
e 3 4
e 3 6
e 3 8
e 3 9
e 3 12
e 3 13
e 3 14
e 3 15
e 3 16
e 3 17
e 3 19
e 4 5
e 4 7
e 4 14
e 4 15
e 4 16
e 4 18
e 4 19
e 4 20
e 5 7
e 5 8
e 5 9
e 5 11
e 5 12
e 5 15
e 5 16
e 5 19
e 5 20
e 6 8
e 6 11
e 6 12
e 6 13
e 6 14
e 6 15
e 6 17
e 6 18
e 6 19
e 7 9
e 7 10
e 7 13
e 7 15
e 7 16
e 7 19
e 7 20
e 8 9
e 8 10
e 8 11
e 8 12
e 8 13
e 8 14
e 8 15
e 8 20
e 9 10
e 9 11
e 9 13
e 9 14
e 9 16
e 9 17
e 9 18
e 9 19
e 9 20
e 10 11
e 10 13
e 10 14
e 10 15
e 10 17
e 10 18
e 11 12
e 11 13
e 11 14
e 11 16
e 11 19
e 11 20
e 12 13
e 12 14
e 12 15
e 12 18
e 12 19
e 12 20
e 13 14
e 13 15
e 13 17
e 13 18
e 13 19
e 14 15
e 14 17
e 14 19
e 15 16
e 15 20
e 16 18
e 16 20
e 19 20
